11
0 4 19 2 15 5 5 15 12 1 7
18 0 12 10 12 9 2 8 16 16 10
9 5 0 14 20 19 2 6 12 2 16
3 2 10 0 8 8 3 13 1 3 8
13 14 4 1 0 14 1 14 20 9 14
7 11 14 18 15 0 12 4 1 14 4
6 1 15 3 11 8 0 18 2 20 20
14 10 13 2 13 6 2 0 19 2 14
17 19 19 5 12 12 11 10 0 1 13
12 5 7 11 13 6 15 19 13 0 3
12 11 7 5 14 4 5 1 17 18 0